% Logging successfully configured
%%%mzn-stat: initTime=0.020936078
%%%mzn-stat: objective=682
%%%mzn-stat: nodes=7886
%%%mzn-stat: restarts=0
%%%mzn-stat: peakDepth=616
%%%mzn-stat: solveTime=0.396017386
%%%mzn-stat: variables=1094
%%%mzn-stat: propagators=805
%%%mzn-stat: failures=781
%%%mzn-stat: propagations=60483
%%%mzn-stat: nogoods=781
%%%mzn-stat: numAtomicConstraintsPropagated=0
%%%mzn-stat: allDifferentNumber1TotalHallSetSize=9249
%%%mzn-stat: allDifferentNumber1NumberOfConflicts=761
%%%mzn-stat: allDifferentNumber1MaxHallSetSize=64
%%%mzn-stat: allDifferentNumber1PropagationsTotal=11623
%%%mzn-stat: allDifferentNumber1PropagationsThatFoundConflict=761
%%%mzn-stat: circuitNumber2PropagationsThatFoundConflict=14
%%%mzn-stat: circuitNumber2TotalFixedEdgesAtConflict=745
%%%mzn-stat: circuitNumber2NumberOfConflicts=14
%%%mzn-stat: circuitNumber2PropagationsThatPruned=368
%%%mzn-stat: circuitNumber2PropagationsTotal=7560
%%%mzn-stat: AverageConflictSize=10.723431498079385
%%%mzn-stat: NumUnitNogoodsLearned=0
%%%mzn-stat: AverageLearnedNogoodLength=9.891165172855313
%%%mzn-stat: AverageBacktrackAmount=0
%%%mzn-stat: AverageLbd=7.626120358514725
%%%mzn-stat: 2AutonomousSearchNumBackupCalled=544
%%%mzn-stat: 2AutonomousSearchNumPredicatesRemoved=0
%%%mzn-stat: 2AutonomousSearchNumCalls=545
%%%mzn-stat: 2AutonomousSearchNumPredicatesAdded=2586
%%%mzn-stat: 2AutonomousSearchAverageSizeOfHeap=4.744954128440367
%%%mzn-stat: 2AutonomousSearchNumAssignedPredicatesEncountered=2586
%%%mzn-stat-end
maxleg = 682;
succ = array1d(1..100,[24, 10, 22, 5, 40, 36, 27, 15, 16, 8, 12, 34, 35, 23, 14, 20, 18, 57, 32, 21, 25, 6, 44, 4, 26, 41, 13, 39, 2, 48, 37, 43, 29, 54, 19, 71, 91, 62, 80, 61, 46, 82, 96, 86, 87, 55, 9, 42, 11, 58, 69, 92, 68, 38, 52, 1, 30, 49, 85, 50, 73, 74, 51, 7, 72, 95, 64, 77, 88, 65, 53, 83, 99, 79, 81, 97, 93, 70, 98, 63, 84, 90, 89, 94, 76, 31, 47, 33, 3, 45, 66, 56, 17, 28, 100, 59, 60, 78, 75, 67]);
% time elapsed: 7.56 s
----------
%%%mzn-stat: initTime=0.020936078
%%%mzn-stat: objective=518
%%%mzn-stat: nodes=10499
%%%mzn-stat: restarts=0
%%%mzn-stat: peakDepth=616
%%%mzn-stat: solveTime=0.83037252
%%%mzn-stat: variables=1094
%%%mzn-stat: propagators=805
%%%mzn-stat: failures=1804
%%%mzn-stat: propagations=91192
%%%mzn-stat: nogoods=1804
%%%mzn-stat: numAtomicConstraintsPropagated=0
%%%mzn-stat: allDifferentNumber1TotalHallSetSize=59861
%%%mzn-stat: allDifferentNumber1NumberOfConflicts=1729
%%%mzn-stat: allDifferentNumber1MaxHallSetSize=76
%%%mzn-stat: allDifferentNumber1PropagationsTotal=16909
%%%mzn-stat: allDifferentNumber1PropagationsThatFoundConflict=1729
%%%mzn-stat: circuitNumber2PropagationsThatFoundConflict=27
%%%mzn-stat: circuitNumber2TotalFixedEdgesAtConflict=1513
%%%mzn-stat: circuitNumber2NumberOfConflicts=27
%%%mzn-stat: circuitNumber2PropagationsThatPruned=559
%%%mzn-stat: circuitNumber2PropagationsTotal=10851
%%%mzn-stat: AverageConflictSize=33.18569844789357
%%%mzn-stat: NumUnitNogoodsLearned=0
%%%mzn-stat: AverageLearnedNogoodLength=29.498337028824835
%%%mzn-stat: AverageBacktrackAmount=0
%%%mzn-stat: AverageLbd=19.10088691796009
%%%mzn-stat: 2AutonomousSearchNumBackupCalled=1072
%%%mzn-stat: 2AutonomousSearchNumPredicatesRemoved=0
%%%mzn-stat: 2AutonomousSearchNumCalls=1074
%%%mzn-stat: 2AutonomousSearchNumPredicatesAdded=5165
%%%mzn-stat: 2AutonomousSearchAverageSizeOfHeap=5.82122905027933
%%%mzn-stat: 2AutonomousSearchNumAssignedPredicatesEncountered=6252
%%%mzn-stat-end
maxleg = 518;
succ = array1d(1..100,[24, 10, 22, 5, 40, 36, 27, 15, 16, 8, 12, 34, 35, 23, 14, 20, 18, 57, 32, 21, 25, 6, 44, 4, 26, 41, 51, 39, 2, 17, 37, 43, 29, 49, 19, 68, 91, 11, 80, 61, 48, 82, 96, 86, 87, 42, 9, 30, 54, 13, 69, 55, 71, 58, 46, 1, 77, 60, 7, 97, 73, 38, 56, 67, 3, 63, 95, 93, 88, 74, 78, 65, 99, 79, 81, 50, 53, 70, 98, 89, 84, 90, 72, 94, 76, 31, 47, 64, 83, 45, 66, 52, 92, 28, 100, 59, 85, 62, 75, 33]);
% time elapsed: 7.97 s
----------
%%%mzn-stat: initTime=0.020936078
%%%mzn-stat: objective=518
%%%mzn-stat: nodes=4961726
%%%mzn-stat: restarts=0
%%%mzn-stat: peakDepth=616
%%%mzn-stat: solveTime=1792.569069854
%%%mzn-stat: variables=1094
%%%mzn-stat: propagators=805
%%%mzn-stat: failures=3143039
%%%mzn-stat: propagations=104114867
%%%mzn-stat: nogoods=3143039
%%%mzn-stat: numAtomicConstraintsPropagated=0
%%%mzn-stat: allDifferentNumber1TotalHallSetSize=495538
%%%mzn-stat: allDifferentNumber1NumberOfConflicts=161575
%%%mzn-stat: allDifferentNumber1MaxHallSetSize=76
%%%mzn-stat: allDifferentNumber1PropagationsTotal=12439991
%%%mzn-stat: allDifferentNumber1PropagationsThatFoundConflict=161575
%%%mzn-stat: circuitNumber2PropagationsThatFoundConflict=2931596
%%%mzn-stat: circuitNumber2TotalFixedEdgesAtConflict=281779188
%%%mzn-stat: circuitNumber2NumberOfConflicts=2931596
%%%mzn-stat: circuitNumber2PropagationsThatPruned=1703990
%%%mzn-stat: circuitNumber2PropagationsTotal=9663390
%%%mzn-stat: AverageConflictSize=62.809144589042646
%%%mzn-stat: NumUnitNogoodsLearned=0
%%%mzn-stat: AverageLearnedNogoodLength=50.32277455036352
%%%mzn-stat: AverageBacktrackAmount=0
%%%mzn-stat: AverageLbd=34.08660789764301
%%%mzn-stat: 2AutonomousSearchNumBackupCalled=1072
%%%mzn-stat: 2AutonomousSearchNumPredicatesRemoved=0
%%%mzn-stat: 2AutonomousSearchNumCalls=1074
%%%mzn-stat: 2AutonomousSearchNumPredicatesAdded=10930
%%%mzn-stat: 2AutonomousSearchAverageSizeOfHeap=5.82122905027933
%%%mzn-stat: 2AutonomousSearchNumAssignedPredicatesEncountered=6252
%%%mzn-stat-end
